(set-logic ALL)
(declare-var conf_0 (BitVec 32))
(declare-var conf_0! (BitVec 32))
(declare-var conf_1 (BitVec 32))
(declare-var conf_1! (BitVec 32))
(declare-var conf_2 (BitVec 32))
(declare-var conf_2! (BitVec 32))
(declare-var conf_3 (BitVec 32))
(declare-var conf_3! (BitVec 32))
(declare-var conf_4 (BitVec 32))
(declare-var conf_4! (BitVec 32))
(declare-var lock (BitVec 32))
(declare-var lock! (BitVec 32))
(declare-var x (BitVec 32))
(declare-var x! (BitVec 32))
(declare-var y (BitVec 32))
(declare-var y! (BitVec 32))
(declare-var tmp (BitVec 32))
(declare-var tmp! (BitVec 32))
(declare-var conf_0_0 (BitVec 32))
(declare-var conf_0_0! (BitVec 32))
(declare-var conf_0_1 (BitVec 32))
(declare-var conf_0_1! (BitVec 32))
(declare-var conf_0_2 (BitVec 32))
(declare-var conf_0_2! (BitVec 32))
(declare-var conf_0_3 (BitVec 32))
(declare-var conf_0_3! (BitVec 32))
(declare-var conf_0_4 (BitVec 32))
(declare-var conf_0_4! (BitVec 32))
(declare-var conf_1_0 (BitVec 32))
(declare-var conf_1_0! (BitVec 32))
(declare-var conf_1_1 (BitVec 32))
(declare-var conf_1_1! (BitVec 32))
(declare-var conf_1_2 (BitVec 32))
(declare-var conf_1_2! (BitVec 32))
(declare-var conf_1_3 (BitVec 32))
(declare-var conf_1_3! (BitVec 32))
(declare-var conf_2_0 (BitVec 32))
(declare-var conf_2_0! (BitVec 32))
(declare-var conf_3_0 (BitVec 32))
(declare-var conf_3_0! (BitVec 32))
(declare-var conf_4_0 (BitVec 32))
(declare-var conf_4_0! (BitVec 32))
(declare-var conf_4_1 (BitVec 32))
(declare-var conf_4_1! (BitVec 32))
(declare-var conf_4_2 (BitVec 32))
(declare-var conf_4_2! (BitVec 32))
(declare-var conf_4_3 (BitVec 32))
(declare-var conf_4_3! (BitVec 32))
(declare-var conf_4_4 (BitVec 32))
(declare-var conf_4_4! (BitVec 32))
(declare-var lock_0 (BitVec 32))
(declare-var lock_0! (BitVec 32))
(declare-var lock_1 (BitVec 32))
(declare-var lock_1! (BitVec 32))
(declare-var lock_2 (BitVec 32))
(declare-var lock_2! (BitVec 32))
(declare-var lock_3 (BitVec 32))
(declare-var lock_3! (BitVec 32))
(declare-var lock_4 (BitVec 32))
(declare-var lock_4! (BitVec 32))
(declare-var lock_5 (BitVec 32))
(declare-var lock_5! (BitVec 32))
(declare-var x_0 (BitVec 32))
(declare-var x_0! (BitVec 32))
(declare-var x_1 (BitVec 32))
(declare-var x_1! (BitVec 32))
(declare-var x_2 (BitVec 32))
(declare-var x_2! (BitVec 32))
(declare-var x_3 (BitVec 32))
(declare-var x_3! (BitVec 32))
(declare-var x_4 (BitVec 32))
(declare-var x_4! (BitVec 32))
(declare-var y_0 (BitVec 32))
(declare-var y_0! (BitVec 32))
(declare-var y_1 (BitVec 32))
(declare-var y_1! (BitVec 32))
(declare-var y_2 (BitVec 32))
(declare-var y_2! (BitVec 32))
(declare-var y_3 (BitVec 32))
(declare-var y_3! (BitVec 32))
(declare-var y_4 (BitVec 32))
(declare-var y_4! (BitVec 32))
(synth-fun inv-f((parameter0 (BitVec 32))(parameter1 (BitVec 32))(parameter2 (BitVec 32))(parameter3 (BitVec 32))(parameter4 (BitVec 32))(parameter5 (BitVec 32))(parameter6 (BitVec 32))(parameter7 (BitVec 32))(parameter8 (BitVec 32))(parameter9 (BitVec 32))(parameter10 (BitVec 32))(parameter11 (BitVec 32))(parameter12 (BitVec 32))(parameter13 (BitVec 32))(parameter14 (BitVec 32))(parameter15 (BitVec 32))(parameter16 (BitVec 32))(parameter17 (BitVec 32))(parameter18 (BitVec 32))(parameter19 (BitVec 32))(parameter20 (BitVec 32))(parameter21 (BitVec 32))(parameter22 (BitVec 32))(parameter23 (BitVec 32))(parameter24 (BitVec 32))(parameter25 (BitVec 32))(parameter26 (BitVec 32))(parameter27 (BitVec 32))(parameter28 (BitVec 32))(parameter29 (BitVec 32))(parameter30 (BitVec 32))(parameter31 (BitVec 32))(parameter32 (BitVec 32))(parameter33 (BitVec 32))(parameter34 (BitVec 32))(parameter35 (BitVec 32))(parameter36 (BitVec 32))(parameter37 (BitVec 32))(parameter38 (BitVec 32))(parameter39 (BitVec 32))(parameter40 (BitVec 32)))Bool) 
(constraint (=> (and (and (and (and (and (and (and (and (and (and (and (and (and (and (= conf_0 conf_0_0) (= conf_1 conf_1_0) ) (= conf_2 conf_2_0) ) (= conf_3 conf_3_0) ) (= conf_4 conf_4_0) ) (= lock lock_1) ) (= x x_0) ) (= y y_1) ) (= conf_0_0 (_ bv9 32)) ) (= conf_1_0 (_ bv3 32)) ) (= conf_2_0 (_ bv6 32)) ) (= conf_3_0 (_ bv6 32)) ) (= conf_4_0 (_ bv9 32)) ) (= y_1 (bvadd x_0 (_ bv1 32))) ) (= lock_1 (_ bv0 32)) )(inv-f conf_0 conf_1 conf_2 conf_3 conf_4 lock x y tmp conf_0_0 conf_0_1 conf_0_2 conf_0_3 conf_0_4 conf_1_0 conf_1_1 conf_1_2 conf_1_3 conf_2_0 conf_3_0 conf_4_0 conf_4_1 conf_4_2 conf_4_3 conf_4_4 lock_0 lock_1 lock_2 lock_3 lock_4 lock_5 x_0 x_1 x_2 x_3 x_4 y_0 y_1 y_2 y_3 y_4 )))
(constraint (=> (and (inv-f conf_0 conf_1 conf_2 conf_3 conf_4 lock x y tmp conf_0_0 conf_0_1 conf_0_2 conf_0_3 conf_0_4 conf_1_0 conf_1_1 conf_1_2 conf_1_3 conf_2_0 conf_3_0 conf_4_0 conf_4_1 conf_4_2 conf_4_3 conf_4_4 lock_0 lock_1 lock_2 lock_3 lock_4 lock_5 x_0 x_1 x_2 x_3 x_4 y_0 y_1 y_2 y_3 y_4 ) (or (and (and (and (and (and (and (and (and (and (and (and (and (and (and (and (and (and (and (= conf_0_1 conf_0) (= conf_1_1 conf_1) ) (= conf_4_1 conf_4) ) (= lock_2 lock) ) (= x_1 x) ) (= y_2 y) ) (= conf_0_1 conf_0!) ) (= conf_1_1 conf_1!) ) (= conf_4_1 conf_4!) ) (= lock_2 lock!) ) (= x_1 x!) ) (= y_2 y!) ) (= conf_0 conf_0!) ) (= conf_1 conf_1!) ) (= conf_2 conf_2!) ) (= conf_3 conf_3!) ) (= conf_4 conf_4!) ) (= lock lock!) ) (= tmp tmp!) ) (and (and (and (and (and (and (and (and (and (and (and (and (and (and (and (and (and (and (not (not (= x_1 y_2))) (not (= lock_2 (_ bv1 32))) ) (= conf_0 conf_0_0) ) (= conf_0! conf_0_0) ) (= conf_1 conf_1_0) ) (= conf_1! conf_1_0) ) (= conf_2 conf_2_0) ) (= conf_2! conf_2_0) ) (= conf_3 conf_3_0) ) (= conf_3! conf_3_0) ) (= conf_4 conf_4_0) ) (= conf_4! conf_4_0) ) (= lock lock_1) ) (= lock! lock_1) ) (= x x_0) ) (= x! x_0) ) (= y y_1) ) (= y! y_1) ) (= tmp tmp!) ) ) )(inv-f conf_0! conf_1! conf_2! conf_3! conf_4! lock! x! y! tmp! conf_0_0! conf_0_1! conf_0_2! conf_0_3! conf_0_4! conf_1_0! conf_1_1! conf_1_2! conf_1_3! conf_2_0! conf_3_0! conf_4_0! conf_4_1! conf_4_2! conf_4_3! conf_4_4! lock_0! lock_1! lock_2! lock_3! lock_4! lock_5! x_0! x_1! x_2! x_3! x_4! y_0! y_1! y_2! y_3! y_4! )))
(constraint (=> (inv-f conf_0 conf_1 conf_2 conf_3 conf_4 lock x y tmp conf_0_0 conf_0_1 conf_0_2 conf_0_3 conf_0_4 conf_1_0 conf_1_1 conf_1_2 conf_1_3 conf_2_0 conf_3_0 conf_4_0 conf_4_1 conf_4_2 conf_4_3 conf_4_4 lock_0 lock_1 lock_2 lock_3 lock_4 lock_5 x_0 x_1 x_2 x_3 x_4 y_0 y_1 y_2 y_3 y_4 )(and (or (not (and (and (and (and (and (and (and (= conf_0 conf_0_1) (= conf_1 conf_1_1) ) (= conf_2 conf_2_0) ) (= conf_3 conf_3_0) ) (= conf_4 conf_4_1) ) (= lock lock_2) ) (= x x_1) ) (= y y_2) )) (not (and (and (and (and (and (and (and (and (and (and (and (and (and (and (and (and (and (and (not (not (= x_1 y_2))) (= lock_3 (_ bv1 32)) ) (= conf_4_2 (bvadd conf_1_1 conf_0_1)) ) (= x_2 y_2) ) (= conf_1_2 (bvsub conf_2_0 conf_4_2)) ) (= conf_0_2 conf_0_1) ) (= conf_1_3 conf_1_2) ) (= conf_4_3 conf_4_2) ) (= lock_4 lock_3) ) (= x_3 x_2) ) (= y_3 y_2) ) (= conf_0_1 conf_0_2) ) (= conf_1_1 conf_1_3) ) (= conf_4_1 conf_4_3) ) (= lock_2 lock_4) ) (= x_1 x_3) ) (= y_2 y_3) ) (not (not (= x_1 y_2))) ) (not (= lock_2 (_ bv1 32))) )) ) (or (not (and (and (and (and (and (and (and (= conf_0 conf_0_1) (= conf_1 conf_1_1) ) (= conf_2 conf_2_0) ) (= conf_3 conf_3_0) ) (= conf_4 conf_4_1) ) (= lock lock_2) ) (= x x_1) ) (= y y_2) )) (not (and (and (and (and (and (and (and (and (and (and (and (and (and (and (and (and (and (and (and (and (not (not (= x_1 y_2))) (= lock_5 (_ bv0 32)) ) (= conf_0_3 (bvadd (_ bv310 32) (_ bv561 32))) ) (= x_4 y_2) ) (= conf_0_4 (_ bv184 32)) ) (= y_4 (bvadd y_2 (_ bv1 32))) ) (= conf_4_4 (bvadd conf_4_1 (_ bv143 32))) ) (= conf_0_2 conf_0_4) ) (= conf_1_3 conf_1_1) ) (= conf_4_3 conf_4_4) ) (= lock_4 lock_5) ) (= x_3 x_4) ) (= y_3 y_4) ) (= conf_0_1 conf_0_2) ) (= conf_1_1 conf_1_3) ) (= conf_4_1 conf_4_3) ) (= lock_2 lock_4) ) (= x_1 x_3) ) (= y_2 y_3) ) (not (not (= x_1 y_2))) ) (not (= lock_2 (_ bv1 32))) )) ) )))
(check-synth)

